db/inputs/90142154016574410721291114922134031993.smt2
(set-logic QF_FP)
(declare-const x0 (_ FloatingPoint 8 24))
(declare-const x1 (_ FloatingPoint 8 24))
(declare-const x2 (_ FloatingPoint 8 24))
(declare-const x3 (_ FloatingPoint 8 24))
(declare-const x4 (_ FloatingPoint 8 24))
(declare-const x5 (_ FloatingPoint 8 24))
(declare-const x6 (_ FloatingPoint 8 24))
(declare-const x7 (_ FloatingPoint 8 24))
(declare-const x8 (_ FloatingPoint 8 24))
(declare-const x9 (_ FloatingPoint 8 24))
(declare-const x10 (_ FloatingPoint 8 24))
(declare-const x11 (_ FloatingPoint 8 24))
(declare-const x12 (_ FloatingPoint 8 24))
(declare-const x13 (_ FloatingPoint 8 24))
(declare-const x14 (_ FloatingPoint 8 24))
(declare-const x15 (_ FloatingPoint 8 24))
(assert (fp.leq (fp.add RNE (fp.sub RNE x0 x12) (fp.sub RNE x2 x6)) (fp.add RNE (fp.div RNE x3 x11) (fp.neg x11))))
(assert (fp.lt (fp.div RNE (fp.sub RNE x11 x6) (fp.mul RNE x3 x0)) (fp.mul RNE (fp.neg x9) (fp.div RNE x12 x10))))
(check-sat)
