db/data/90142154016574410721291114922134031993.z3.out
sat
-------------------
13.763500907
